language ESSENCE' 1.0

letting n_classes be 28
letting n_options be 5
letting n_cars be 200
letting quantity_Function1D be
        [6, 1, 9, 1, 2, 1, 10, 2, 18, 6, 4, 1, 7, 3, 4, 15, 2, 13, 8, 6, 36, 2, 21, 5, 2, 1, 8, 6; int(1..28)]
letting usage_RelationAsSet_Explicit_1 be
        [1, 1, 1, 2, 2, 2, 2, 3, 3, 4, 4, 4, 5, 5, 5, 5, 6, 6, 6, 6, 6, 7, 8, 8, 8, 9, 9, 10, 10, 11, 11, 12, 12, 12,
         12, 13, 13, 13, 14, 14, 14, 15, 15, 16, 17, 17, 17, 17, 18, 18, 19, 19, 20, 21, 22, 22, 22, 23, 23, 24, 25, 25;
             int(1..62)]
letting usage_RelationAsSet_Explicit_2 be
        [1, 3, 4, 1, 3, 4, 5, 2, 3, 3, 4, 5, 1, 2, 3, 4, 1, 2, 3, 4, 5, 3, 1, 4, 5, 2, 4, 2, 5, 4, 5, 2, 3, 4, 5, 1, 2,
         3, 2, 3, 4, 1, 5, 1, 1, 2, 4, 5, 1, 2, 1, 3, 1, 2, 1, 3, 5, 1, 2, 3, 2, 5;
             int(1..62)]
letting blksize_Function1D be [2, 3, 3, 5, 5; int(1..5)]
letting maxcars_Function1D be [1, 2, 1, 2, 1; int(1..5)]
letting fin1 be 28
letting fin2 be 36
letting fin3 be 5
letting fin4 be 2
letting fin5 be 5
letting fin6 be 5
letting fin7 be 62
